TITLE : Patch Test C, Full integration
        (16:21:2 on June 15, 2025, Sunday)

C O N T R O L   I N F O R M A T I O N

      NUMBER OF NODAL POINTS . . . . . . . . . . (NUMNP)  =     8
      NUMBER OF ELEMENT GROUPS . . . . . . . . . (NUMEG)  =     1
      NUMBER OF LOAD CASES . . . . . . . . . . . (NLCASE) =     1
      SOLUTION MODE  . . . . . . . . . . . . . . (MODEX)  =     1
         EQ.0, DATA CHECK
         EQ.1, EXECUTION

 N O D A L   P O I N T   D A T A

    NODE       BOUNDARY                         NODAL POINT
   NUMBER  CONDITION  CODES                     COORDINATES
        1    1    1    1       0.00000e+00    0.00000e+00    0.00000e+00
        2    0    1    1       2.50000e+00    0.00000e+00    0.00000e+00
        3    0    0    1       2.50000e+00    3.00000e+00    0.00000e+00
        4    0    0    1       0.00000e+00    2.00000e+00    0.00000e+00
        5    0    0    1       5.00000e-01    5.00000e-01    0.00000e+00
        6    0    0    1       2.00000e+00    7.50000e-01    0.00000e+00
        7    0    0    1       1.75000e+00    1.75000e+00    0.00000e+00
        8    0    0    1       6.50000e-01    1.60000e+00    0.00000e+00

 EQUATION NUMBERS

   NODE NUMBER   DEGREES OF FREEDOM
        N           X    Y    Z
        1           0    0    0    0    0    0
        2           1    0    0    0    0    0
        3           2    3    0    0    0    0
        4           4    5    0    0    0    0
        5           6    7    0    0    0    0
        6           8    9    0    0    0    0
        7          10   11    0    0    0    0
        8          12   13    0    0    0    0

 L O A D   C A S E   D A T A

     LOAD CASE NUMBER . . . . . . . =     1
     NUMBER OF CONCENTRATED LOADS . =     3

    NODE       DIRECTION      LOAD
   NUMBER                   MAGNITUDE
      2            1        1.50000e+01
      3            1        1.00000e+01
      4            1       -1.50000e+01

 E L E M E N T   G R O U P   D A T A


 E L E M E N T   D E F I N I T I O N

 ELEMENT TYPE  . . . . . . . . . . . . .( NPAR(1) ) . . =    2
     EQ.1, TRUSS ELEMENTS
     EQ.2, ELEMENTS CURRENTLY
     EQ.3, NOT AVAILABLE

 NUMBER OF ELEMENTS. . . . . . . . . . .( NPAR(2) ) . . =    5

 M A T E R I A L   D E F I N I T I O N

 NUMBER OF DIFFERENT SETS OF MATERIAL
 AND CROSS-SECTIONAL  CONSTANTS  . . . .( NPAR(3) ) . . =    1

  SET       YOUNG'S     POISSON'S
 NUMBER     MODULUS        RATIO
               E              NU
    1     1.00000e+03     3.00000e-01


 E L E M E N T   I N F O R M A T I O N
 ELEMENT     NODE     NODE       NODE       NODE       MATERIAL
 NUMBER-N      I        J         K         L       SET NUMBER
    1          1        2        6        5           1
    2          2        3        7        6           1
    3          3        4        8        7           1
    4          4        1        5        8           1
    5          5        6        7        8           1

	TOTAL SYSTEM DATA

     NUMBER OF EQUATIONS . . . . . . . . . . . . . .(NEQ) = 13
     NUMBER OF MATRIX ELEMENTS . . . . . . . . . . .(NWK) = 87
     MAXIMUM HALF BANDWIDTH  . . . . . . . . . . . .(MK ) = 12
     MEAN HALF BANDWIDTH . . . . . . . . . . . . . .(MM ) = 6


 LOAD CASE    1


 D I S P L A C E M E N T S

  NODE           X-DISPLACEMENT    Y-DISPLACEMENT    Z-DISPLACEMENT
    1               0.00000e+00       0.00000e+00       0.00000e+00       0.00000e+00       0.00000e+00       0.00000e+00
    2               2.50000e-02       0.00000e+00       0.00000e+00       0.00000e+00       0.00000e+00       0.00000e+00
    3               2.50000e-02      -9.00000e-03       0.00000e+00       0.00000e+00       0.00000e+00       0.00000e+00
    4              -6.17995e-17      -6.00000e-03       0.00000e+00       0.00000e+00       0.00000e+00       0.00000e+00
    5               5.00000e-03      -1.50000e-03       0.00000e+00       0.00000e+00       0.00000e+00       0.00000e+00
    6               2.00000e-02      -2.25000e-03       0.00000e+00       0.00000e+00       0.00000e+00       0.00000e+00
    7               1.75000e-02      -5.25000e-03       0.00000e+00       0.00000e+00       0.00000e+00       0.00000e+00
    8               6.50000e-03      -4.80000e-03       0.00000e+00       0.00000e+00       0.00000e+00       0.00000e+00

 S T R E S S  C A L C U L A T I O N S  F O R  E L E M E N T  G R O U P    1

  ELEMENT                 GAUSS POINT 1                                GAUSS POINT 2                                GAUSS POINT 3                                GAUSS POINT 4
  NUMBER      SIGMA_XX      SIGMA_YY      SIGMA_XY         SIGMA_XX      SIGMA_YY      SIGMA_XY         SIGMA_XX      SIGMA_YY      SIGMA_XY         SIGMA_XX      SIGMA_YY      SIGMA_XY
    1      1.00000e+01  -2.38286e-15   8.01684e-15      1.00000e+01  -3.81258e-15   6.83881e-15      1.00000e+01   5.71887e-15   6.96391e-15      1.00000e+01   3.81258e-15   6.96391e-15
    2      1.19143e-14   1.00000e+01  -3.16921e-15      8.57830e-15   1.00000e+01  -5.33761e-15      1.00080e-14   1.00000e+01  -3.33601e-15      1.00080e-14   1.00000e+01  -3.25261e-15
    3      8.62069e+00   1.37931e+00   3.44828e+00      8.62069e+00   1.37931e+00   3.44828e+00      8.62069e+00   1.37931e+00   3.44828e+00      8.62069e+00   1.37931e+00   3.44828e+00
    4     -9.05488e-15   1.00000e+01  -5.00401e-15     -6.19544e-15   1.00000e+01  -4.00321e-15     -5.71887e-15   1.00000e+01  -8.34002e-15     -1.04846e-14   1.00000e+01  -7.33921e-15
    5      9.72973e+00   2.70270e-01   1.62162e+00      9.72973e+00   2.70270e-01   1.62162e+00      9.72973e+00   2.70270e-01   1.62162e+00      9.72973e+00   2.70270e-01   1.62162e+00
                X             Y             Z                X             Y             Z                X             Y             Z                X             Y             Z
    1      5.89316e-01   1.16827e-01   0.00000e+00      1.91068e+00   1.47329e-01   0.00000e+00      1.74402e+00   5.49840e-01   0.00000e+00      7.55983e-01   4.36004e-01   0.00000e+00
    2      2.38317e+00   7.03152e-01   0.00000e+00      2.35267e+00   2.19119e+00   0.00000e+00      1.95016e+00   1.71351e+00   0.00000e+00      2.06400e+00   8.92148e-01   0.00000e+00
    3      1.87572e+00   2.56248e+00   0.00000e+00      6.03152e-01   2.08884e+00   0.00000e+00      8.07618e-01   1.75419e+00   0.00000e+00      1.61351e+00   1.94450e+00   0.00000e+00
    4      1.30662e-01   1.53301e+00   0.00000e+00      1.12361e-01   4.88120e-01   0.00000e+00      4.19338e-01   6.66987e-01   0.00000e+00      4.87639e-01   1.41188e+00   0.00000e+00
    5      8.30823e-01   7.80823e-01   0.00000e+00      1.64804e+00   9.12959e-01   0.00000e+00      1.55251e+00   1.50251e+00   0.00000e+00      8.68622e-01   1.40371e+00   0.00000e+00
               D_X           D_Y           D_Z              D_X           D_Y           D_Z              D_X           D_Y           D_Z              D_X           D_Y           D_Z
    1      5.89316e-03  -3.50481e-04   0.00000e+00      1.91068e-02  -4.41987e-04   0.00000e+00      1.74402e-02  -1.64952e-03   0.00000e+00      7.55983e-03  -1.30801e-03   0.00000e+00
    2      2.38317e-02  -2.10946e-03   0.00000e+00      2.35267e-02  -6.57356e-03   0.00000e+00      1.95016e-02  -5.14054e-03   0.00000e+00      2.06400e-02  -2.67644e-03   0.00000e+00
    3      1.87572e-02  -7.68744e-03  -0.00000e+00      6.03152e-03  -6.26651e-03  -0.00000e+00      8.07618e-03  -5.26256e-03  -0.00000e+00      1.61351e-02  -5.83349e-03  -0.00000e+00
    4      1.30662e-03  -4.59904e-03   0.00000e+00      1.12361e-03  -1.46436e-03   0.00000e+00      4.19338e-03  -2.00096e-03   0.00000e+00      4.87639e-03  -4.23564e-03   0.00000e+00
    5      8.30823e-03  -2.34247e-03   0.00000e+00      1.64804e-02  -2.73888e-03   0.00000e+00      1.55251e-02  -4.50753e-03   0.00000e+00      8.68622e-03  -4.21112e-03   0.00000e+00


 S O L U T I O N   T I M E   L O G   I N   S E C 

     TIME FOR INPUT PHASE = 8.49000e-04
     TIME FOR CALCULATION OF STIFFNESS MATRIX = 4.60000e-05
     TIME FOR FACTORIZATION AND LOAD CASE SOLUTIONS = 3.11000e-04

     T O T A L   S O L U T I O N   T I M E = 1.20600e-03

